c Result of efficient AIG-to-CNF conversion using package CNF
p cnf 53 180
2 -43 -3 -31 0
2 -43 -23 -31 0
2 -3 -23 -31 0
-2 3 23 0
-2 43 23 0
-2 31 0
-2 43 3 0
-3 45 18 0
-3 4 14 18 0
3 -18 0
3 -45 -14 0
3 -45 -4 0
4 -8 -12 -13 0
4 -5 -8 -12 0
-4 12 0
-4 8 0
-4 5 13 0
-5 6 7 0
-5 50 6 0
5 -6 0
5 -50 -7 0
6 -51 -52 0
-6 51 0
-6 52 0
-7 51 52 0
7 -51 0
7 -52 0
-8 48 10 0
-8 5 9 10 0
8 -10 0
8 -48 -5 0
8 -48 -9 0
-9 49 0
-9 50 7 0
9 -49 -50 0
9 -49 -7 0
10 -47 0
10 -5 -11 0
-10 47 5 0
-10 47 11 0
11 -49 0
11 -50 -6 0
-11 49 6 0
-11 49 50 0
-12 49 50 7 0
12 -7 0
12 -50 0
12 -49 0
-13 48 9 0
13 -48 0
13 -9 0
14 -46 -15 -17 0
-14 46 0
-14 17 0
-14 15 0
-15 5 9 16 0
15 -5 0
15 -9 0
15 -16 0
-16 47 48 0
16 -47 0
16 -48 0
-17 48 12 0
-17 47 12 0
17 -12 0
17 -47 -48 0
-18 44 4 0
-18 44 19 21 0
18 -44 0
18 -4 -19 0
18 -4 -21 0
19 -5 -11 -20 0
19 -5 -11 -16 0
-19 5 0
-19 11 0
-19 16 20 0
20 -49 -50 -6 0
-20 49 0
-20 50 0
-20 6 0
-21 46 22 0
21 -46 0
21 -22 0
-22 47 0
-22 48 0
-22 5 9 0
22 -47 -48 -9 0
22 -47 -48 -5 0
23 -4 -24 0
23 -14 -29 0
23 -14 -24 0
23 -24 -29 0
23 -4 -29 0
-23 24 29 0
-23 4 14 24 0
-23 4 14 29 0
-24 43 25 0
24 -43 0
24 -25 0
-25 26 28 0
-25 26 27 0
-25 45 0
-25 27 28 0
25 -45 -26 -28 0
25 -45 -27 -28 0
25 -45 -26 -27 0
26 -15 -17 0
-26 15 0
-26 17 0
-27 46 0
-27 12 16 0
27 -46 -16 0
27 -46 -12 0
-28 12 16 0
28 -12 0
28 -16 0
-29 43 30 0
29 -43 0
29 -30 0
-30 12 16 0
-30 46 26 0
30 -46 -16 0
30 -12 -26 0
30 -16 -26 0
30 -46 -12 0
31 -32 -33 0
31 -4 -33 0
31 -44 -33 0
-31 33 0
-31 44 4 32 0
-32 45 14 0
32 -45 0
32 -14 0
33 43 -39 0
33 34 -39 0
33 38 -39 0
-33 39 0
-33 -43 -34 -38 0
-34 35 36 0
-34 46 22 36 0
34 -36 0
34 -46 -35 0
34 -22 -35 0
35 -48 -20 0
-35 48 0
-35 20 0
36 -48 -5 -37 0
36 -5 -20 -37 0
-36 37 0
-36 5 0
-36 48 20 0
37 -46 -47 -11 0
-37 46 0
-37 47 0
-37 11 0
38 -44 -45 0
-38 44 0
-38 45 0
39 -30 -40 0
39 -44 -45 -40 0
-39 40 0
-39 45 30 0
-39 44 30 0
40 -12 41 0
40 -46 41 0
40 -16 41 0
-40 -41 0
-40 46 12 16 0
41 -43 -35 -42 0
41 -35 -38 -42 0
-41 42 0
-41 35 0
-41 43 38 0
42 -44 -46 -47 0
42 -45 -46 -47 0
-42 47 0
-42 46 0
-42 44 45 0
-53 0
2 0

